3762
13488
11192
3982
13601
3394
2224
14002
14671
4515
4290
8539
5839
9532
10136
12519
6235
7705
696
2421
12660
9715
4971
9854
7490
9491
2262
3237
17445
18128
21038
7642
4979
11237
5026
8001
5685
11883
8101
4559
18046
4849
21517
8309
4875
14344
5427
4172
6201
20702
20793
11203
6981
4363
4407
7551
12397
21967
19884
11588
25822
6939
3385
3703
9094
2488
2300
12827
11199
2238
11368
7366
14190
18370
15871
11483
11296
14699
10099
15803
7860
13239
3307
3898
19284
7629
10089
19099
5932
9644
6815
2493
4088
2355
2471
8167
4023
4470
14526
